instances/knapsack/discrete/knapsack_80_6.kp
71848
80
386

51 5.1 57
87 8.7 6
1 0.1 87
26 2.6 43
11 1.1 93
45 4.5 72
64 6.4 41
51 5.1 63
100 10.0 30
93 9.3 90
63 6.3 14
38 3.8 46
11 1.1 58
67 6.7 77
40 4.0 98
72 7.2 31
32 3.2 89
99 9.9 81
12 1.2 74
81 8.1 73
24 2.4 41
3 0.3 62
31 3.1 27
22 2.2 35
68 6.8 36
95 9.5 90
85 8.5 55
15 1.5 3
73 7.3 77
26 2.6 16
45 4.5 84
55 5.5 23
7 0.7 51
48 4.8 42
79 7.9 43
80 8.0 68
63 6.3 8
72 7.2 66
31 3.1 94
38 3.8 71
74 7.4 79
65 6.5 81
85 8.5 97
13 1.3 90
42 4.2 42
42 4.2 66
17 1.7 72
97 9.7 12
38 3.8 64
83 8.3 69
46 4.6 54
11 1.1 2
96 9.6 50
3 0.3 44
80 8.0 75
31 3.1 41
12 1.2 50
46 4.6 75
67 6.7 67
81 8.1 26
60 6.0 3
14 1.4 65
31 3.1 93
2 0.2 33
75 7.5 86
27 2.7 36
68 6.8 12
50 5.0 33
35 3.5 60
57 5.7 29
73 7.3 72
77 7.7 78
53 5.3 72
86 8.6 13
23 2.3 62
56 5.6 17
62 6.2 81
58 5.8 92
32 3.2 35
86 8.6 95

41347
389

[1.18 2.87 2.66 4.49 3.72 2.76 1.87 0.28 1.21 4.79 1.71 1.7 1.07 2.39 3.7 2.77 0.71 0.03 1.72 3.65 0.29 3.9 0.04 4.81 1.45 1.62 3.0 4.58 0.69 0.29 4.2 4.02 0.88 0.98 3.15 1.29 1.67 3.48 1.73 0.5 1.44 1.82 0.52 0.24 0.24 4.72 3.63 0.82 4.66 1.87 1.58 2.4 4.46 4.14 2.06 1.91 2.47 0.61 3.59 1.35 4.25 1.04 3.46 0.21 0.13 1.7 1.59 3.55 1.26 3.6 1.11 3.22 4.78 4.62 1.18 3.05 3.2 0.98 2.67 1.68]

[82 19 13 58 39 16 32 98 100 93 98 42 3 27 11 63 76 7 80 85 64 58 87 17 19 47 5 14 44 66 36 18 34 48 55 8 91 7 43 25 98 52 33 40 50 45 40 88 50 23 85 71 32 87 95 74 68 41 35 33 83 81 82 77 18 67 3 69 71 56 24 76 41 74 34 27 61 58 47 69]
