instances/knapsack/discrete/knapsack_80_6.lp
\ Model knapsack_80_6
\ LP format - for model browsing. Use MPS format to capture full model detail.
\ Signature: 0xf86d0bbf74a39a5e
Minimize
  - 28 x[0] - 49 x[1] - 14 x[2] - 98 x[3] - 92 x[4] - 91 x[5] - 92 x[6]
   - 10 x[7] - 89 x[8] - 29 x[9] - 93 x[10] - 29 x[11] - 41 x[12]
   - 28 x[13] - 57 x[14] - 50 x[15] - 64 x[16] - 40 x[17] - 61 x[18]
   - 96 x[19] - 28 x[20] - 93 x[21] - 38 x[22] - 30 x[23] - 67 x[24]
   - 85 x[25] - 22 x[26] - 18 x[27] - 76 x[28] - 59 x[29] - 27 x[30]
   - 34 x[31] - 14 x[32] - 53 x[33] - 10 x[34] - 71 x[35] - 43 x[36]
   - 9 x[37] - x[38] - 22 x[39] - 98 x[40] - 96 x[41] - 24 x[42] - 37 x[43]
   - 25 x[44] - 49 x[45] - 55 x[46] - 83 x[47] - 87 x[48] - 60 x[49]
   - 9 x[50] - 69 x[51] - 85 x[52] - 7 x[53] - 98 x[54] - 36 x[55]
   - 5 x[56] - 22 x[57] - 58 x[58] - 13 x[59] - 38 x[60] - 32 x[61]
   - 84 x[62] - 48 x[63] - 89 x[64] - 83 x[65] - 47 x[66] - 72 x[67]
   - 99 x[68] - 100 x[69] - 71 x[70] - 65 x[71] - 11 x[72] - 100 x[73]
   - 13 x[74] - 32 x[75] - 52 x[76] - 51 x[77] - 6 x[78] - 6 x[79]
Subject To
 primal_upper: 46 x[0] + 2 x[1] + 64 x[2] + 49 x[3] + 14 x[4] + 60 x[5]
   + 11 x[6] + 70 x[7] + 43 x[8] + 48 x[9] + 6 x[10] + 77 x[11] + 62 x[12]
   + 78 x[13] + 47 x[14] + 35 x[15] + 7 x[16] + 70 x[17] + 31 x[18]
   + 8 x[19] + 67 x[20] + 90 x[21] + 54 x[22] + 17 x[23] + 71 x[24]
   + 62 x[25] + 16 x[26] + 70 x[27] + 40 x[28] + 9 x[29] + 4 x[30]
   + 38 x[31] + 70 x[32] + 11 x[33] + 2 x[34] + 47 x[35] + 18 x[36]
   + 39 x[37] + 98 x[38] + 29 x[39] + 77 x[40] + 48 x[41] + 28 x[42]
   + 100 x[43] + 45 x[44] + 9 x[45] + 20 x[46] + 68 x[47] + 37 x[48]
   + 94 x[49] + 85 x[50] + 70 x[51] + 91 x[52] + 62 x[53] + 67 x[54]
   + 38 x[55] + 51 x[56] + x[57] + 18 x[58] + 100 x[59] + 99 x[60]
   + 45 x[61] + 82 x[62] + 29 x[63] + 98 x[64] + 14 x[65] + 83 x[66]
   + 57 x[67] + 50 x[68] + 48 x[69] + 72 x[70] + 92 x[71] + 28 x[72]
   + 61 x[73] + 6 x[74] + 39 x[75] + 45 x[76] + x[77] + 51 x[78] + 9 x[79]
   + 4.6 r[0] + 0.2 r[1] + 6.4 r[2] + 4.9 r[3] + 1.4 r[4] + 6 r[5]
   + 1.1 r[6] + 7 r[7] + 4.3 r[8] + 4.8 r[9] + 0.6 r[10] + 7.7 r[11]
   + 6.2 r[12] + 7.8 r[13] + 4.7 r[14] + 3.5 r[15] + 0.7 r[16] + 7 r[17]
   + 3.1 r[18] + 0.8 r[19] + 6.7 r[20] + 9 r[21] + 5.4 r[22] + 1.7 r[23]
   + 7.1 r[24] + 6.2 r[25] + 1.6 r[26] + 7 r[27] + 4 r[28] + 0.9 r[29]
   + 0.4 r[30] + 3.8 r[31] + 7 r[32] + 1.1 r[33] + 0.2 r[34] + 4.7 r[35]
   + 1.8 r[36] + 3.9 r[37] + 9.8 r[38] + 2.9 r[39] + 7.7 r[40] + 4.8 r[41]
   + 2.8 r[42] + 10 r[43] + 4.5 r[44] + 0.9 r[45] + 2 r[46] + 6.8 r[47]
   + 3.7 r[48] + 9.4 r[49] + 8.5 r[50] + 7 r[51] + 9.1 r[52] + 6.2 r[53]
   + 6.7 r[54] + 3.8 r[55] + 5.1 r[56] + 0.1 r[57] + 1.8 r[58] + 10 r[59]
   + 9.9 r[60] + 4.5 r[61] + 8.2 r[62] + 2.9 r[63] + 9.8 r[64] + 1.4 r[65]
   + 8.3 r[66] + 5.7 r[67] + 5 r[68] + 4.8 r[69] + 7.2 r[70] + 9.2 r[71]
   + 2.8 r[72] + 6.1 r[73] + 0.6 r[74] + 3.9 r[75] + 4.5 r[76] + 0.1 r[77]
   + 5.1 r[78] + 0.9 r[79] <= 361
 primal_lower: 3.224866311038058 x[0] + 1.548581574468082 x[1]
   + 0.7834451869063052 x[2] + 2.056192753155369 x[3]
   + 4.071574408783303 x[4] + 1.831695374018605 x[5]
   + 0.4498800124624792 x[6] + 2.100427936032476 x[7]
   + 0.712576494479194 x[8] + 2.882581316654518 x[9]
   + 2.594222206911515 x[10] + 1.591437722961218 x[11]
   + 1.979381682505212 x[12] + 4.094557296838437 x[13]
   + 0.5739955234700771 x[14] + 0.6007100073278963 x[15]
   + 0.4537868150003833 x[16] + 1.874499422128559 x[17]
   + 0.541426898040281 x[18] + 1.045204526412748 x[19]
   + 0.0640176462071541 x[20] + 0.556760696145528 x[21]
   + 0.7914533160814557 x[22] + 4.136444246379403 x[23]
   + 0.1893178522583269 x[24] + 0.1645259170774602 x[25]
   + 4.456908729153066 x[26] + 4.050301957634214 x[27]
   + 1.028943419763292 x[28] + 3.628571568910605 x[29]
   + 0.8681200969482463 x[30] + 0.9733712821792614 x[31]
   + 0.8127603978790441 x[32] + 1.004089097071442 x[33]
   + 2.24904626647227 x[34] + 3.567284842872809 x[35]
   + 3.059776611631825 x[36] + 2.699222756886686 x[37]
   + 1.68914521943298 x[38] + 2.457540036563016 x[39]
   + 0.7884000727578857 x[40] + 1.908805761120679 x[41]
   + 0.8449099878702219 x[42] + 0.8582488820002619 x[43]
   + 2.054271356309053 x[44] + 3.041506686553624 x[45]
   + 3.328317684648144 x[46] + 2.160614568795673 x[47]
   + 2.762850360640027 x[48] + 3.929321187578392 x[49]
   + 0.2797444625581617 x[50] + 1.740789300868226 x[51]
   + 2.338316448380578 x[52] + 1.479356972362442 x[53]
   + 3.551323672597067 x[54] + 0.2443293699067678 x[55]
   + 1.715691361363993 x[56] + 3.420430460394003 x[57]
   + 2.539158296000349 x[58] + 4.136221427789585 x[59]
   + 0.020895195860748 x[60] + 1.571505706318172 x[61]
   + 4.321278633100118 x[62] + 0.104898369440912 x[63]
   + 2.106255594177227 x[64] + 0.9998263512772376 x[65]
   + 3.268444227938123 x[66] + 1.636685212124872 x[67]
   + 0.4753665238563682 x[68] + 4.36719839810611 x[69]
   + 3.566263128078001 x[70] + 2.034108025705558 x[71]
   + 0.9438549532650152 x[72] + 0.2128160742969611 x[73]
   + 3.899813885811676 x[74] + 1.93850918427998 x[75]
   + 0.3469213769672984 x[76] + 0.3054016147188293 x[77]
   + 2.65947184740112 x[78] + 0.5835366517888203 x[79] + 83 u[0] + 12 u[1]
   + 78 u[2] + 83 u[3] + 8 u[4] + 61 u[5] + 29 u[6] + 15 u[7] + 49 u[8]
   + 30 u[9] + 83 u[10] + 75 u[11] + 64 u[12] + 12 u[13] + 84 u[14]
   + 20 u[15] + 61 u[16] + 88 u[17] + 85 u[18] + 42 u[19] + u[20]
   + 83 u[21] + 64 u[22] + 98 u[23] + 20 u[24] + 48 u[25] + 78 u[26]
   + 63 u[27] + 65 u[28] + 3 u[29] + 5 u[30] + 47 u[31] + 51 u[32]
   + 93 u[33] + 4 u[34] + 85 u[35] + 4 u[36] + 56 u[37] + 12 u[38]
   + 94 u[39] + 83 u[40] + 49 u[41] + 58 u[42] + 89 u[43] + 75 u[44]
   + 38 u[45] + 65 u[46] + 29 u[47] + 39 u[48] + 24 u[49] + 10 u[50]
   + 20 u[51] + 69 u[52] + 28 u[53] + 40 u[54] + 31 u[55] + 45 u[56]
   + 26 u[57] + 52 u[58] + 22 u[59] + 76 u[60] + 10 u[61] + 91 u[62]
   + 54 u[63] + 95 u[64] + 12 u[65] + 100 u[66] + 42 u[67] + 72 u[68]
   + 41 u[69] + 81 u[70] + 61 u[71] + 26 u[72] + 7 u[73] + 7 u[74]
   + 12 u[75] + 10 u[76] + 87 u[77] + 8 u[78] + 46 u[79] <= 24693
 mccormick1[0]: - u[0] + r[0] <= 0
 mccormick1[1]: - u[1] + r[1] <= 0
 mccormick1[2]: - u[2] + r[2] <= 0
 mccormick1[3]: - u[3] + r[3] <= 0
 mccormick1[4]: - u[4] + r[4] <= 0
 mccormick1[5]: - u[5] + r[5] <= 0
 mccormick1[6]: - u[6] + r[6] <= 0
 mccormick1[7]: - u[7] + r[7] <= 0
 mccormick1[8]: - u[8] + r[8] <= 0
 mccormick1[9]: - u[9] + r[9] <= 0
 mccormick1[10]: - u[10] + r[10] <= 0
 mccormick1[11]: - u[11] + r[11] <= 0
 mccormick1[12]: - u[12] + r[12] <= 0
 mccormick1[13]: - u[13] + r[13] <= 0
 mccormick1[14]: - u[14] + r[14] <= 0
 mccormick1[15]: - u[15] + r[15] <= 0
 mccormick1[16]: - u[16] + r[16] <= 0
 mccormick1[17]: - u[17] + r[17] <= 0
 mccormick1[18]: - u[18] + r[18] <= 0
 mccormick1[19]: - u[19] + r[19] <= 0
 mccormick1[20]: - u[20] + r[20] <= 0
 mccormick1[21]: - u[21] + r[21] <= 0
 mccormick1[22]: - u[22] + r[22] <= 0
 mccormick1[23]: - u[23] + r[23] <= 0
 mccormick1[24]: - u[24] + r[24] <= 0
 mccormick1[25]: - u[25] + r[25] <= 0
 mccormick1[26]: - u[26] + r[26] <= 0
 mccormick1[27]: - u[27] + r[27] <= 0
 mccormick1[28]: - u[28] + r[28] <= 0
 mccormick1[29]: - u[29] + r[29] <= 0
 mccormick1[30]: - u[30] + r[30] <= 0
 mccormick1[31]: - u[31] + r[31] <= 0
 mccormick1[32]: - u[32] + r[32] <= 0
 mccormick1[33]: - u[33] + r[33] <= 0
 mccormick1[34]: - u[34] + r[34] <= 0
 mccormick1[35]: - u[35] + r[35] <= 0
 mccormick1[36]: - u[36] + r[36] <= 0
 mccormick1[37]: - u[37] + r[37] <= 0
 mccormick1[38]: - u[38] + r[38] <= 0
 mccormick1[39]: - u[39] + r[39] <= 0
 mccormick1[40]: - u[40] + r[40] <= 0
 mccormick1[41]: - u[41] + r[41] <= 0
 mccormick1[42]: - u[42] + r[42] <= 0
 mccormick1[43]: - u[43] + r[43] <= 0
 mccormick1[44]: - u[44] + r[44] <= 0
 mccormick1[45]: - u[45] + r[45] <= 0
 mccormick1[46]: - u[46] + r[46] <= 0
 mccormick1[47]: - u[47] + r[47] <= 0
 mccormick1[48]: - u[48] + r[48] <= 0
 mccormick1[49]: - u[49] + r[49] <= 0
 mccormick1[50]: - u[50] + r[50] <= 0
 mccormick1[51]: - u[51] + r[51] <= 0
 mccormick1[52]: - u[52] + r[52] <= 0
 mccormick1[53]: - u[53] + r[53] <= 0
 mccormick1[54]: - u[54] + r[54] <= 0
 mccormick1[55]: - u[55] + r[55] <= 0
 mccormick1[56]: - u[56] + r[56] <= 0
 mccormick1[57]: - u[57] + r[57] <= 0
 mccormick1[58]: - u[58] + r[58] <= 0
 mccormick1[59]: - u[59] + r[59] <= 0
 mccormick1[60]: - u[60] + r[60] <= 0
 mccormick1[61]: - u[61] + r[61] <= 0
 mccormick1[62]: - u[62] + r[62] <= 0
 mccormick1[63]: - u[63] + r[63] <= 0
 mccormick1[64]: - u[64] + r[64] <= 0
 mccormick1[65]: - u[65] + r[65] <= 0
 mccormick1[66]: - u[66] + r[66] <= 0
 mccormick1[67]: - u[67] + r[67] <= 0
 mccormick1[68]: - u[68] + r[68] <= 0
 mccormick1[69]: - u[69] + r[69] <= 0
 mccormick1[70]: - u[70] + r[70] <= 0
 mccormick1[71]: - u[71] + r[71] <= 0
 mccormick1[72]: - u[72] + r[72] <= 0
 mccormick1[73]: - u[73] + r[73] <= 0
 mccormick1[74]: - u[74] + r[74] <= 0
 mccormick1[75]: - u[75] + r[75] <= 0
 mccormick1[76]: - u[76] + r[76] <= 0
 mccormick1[77]: - u[77] + r[77] <= 0
 mccormick1[78]: - u[78] + r[78] <= 0
 mccormick1[79]: - u[79] + r[79] <= 0
 mccormick2[0]: - x[0] + r[0] <= 0
 mccormick2[1]: - x[1] + r[1] <= 0
 mccormick2[2]: - x[2] + r[2] <= 0
 mccormick2[3]: - x[3] + r[3] <= 0
 mccormick2[4]: - x[4] + r[4] <= 0
 mccormick2[5]: - x[5] + r[5] <= 0
 mccormick2[6]: - x[6] + r[6] <= 0
 mccormick2[7]: - x[7] + r[7] <= 0
 mccormick2[8]: - x[8] + r[8] <= 0
 mccormick2[9]: - x[9] + r[9] <= 0
 mccormick2[10]: - x[10] + r[10] <= 0
 mccormick2[11]: - x[11] + r[11] <= 0
 mccormick2[12]: - x[12] + r[12] <= 0
 mccormick2[13]: - x[13] + r[13] <= 0
 mccormick2[14]: - x[14] + r[14] <= 0
 mccormick2[15]: - x[15] + r[15] <= 0
 mccormick2[16]: - x[16] + r[16] <= 0
 mccormick2[17]: - x[17] + r[17] <= 0
 mccormick2[18]: - x[18] + r[18] <= 0
 mccormick2[19]: - x[19] + r[19] <= 0
 mccormick2[20]: - x[20] + r[20] <= 0
 mccormick2[21]: - x[21] + r[21] <= 0
 mccormick2[22]: - x[22] + r[22] <= 0
 mccormick2[23]: - x[23] + r[23] <= 0
 mccormick2[24]: - x[24] + r[24] <= 0
 mccormick2[25]: - x[25] + r[25] <= 0
 mccormick2[26]: - x[26] + r[26] <= 0
 mccormick2[27]: - x[27] + r[27] <= 0
 mccormick2[28]: - x[28] + r[28] <= 0
 mccormick2[29]: - x[29] + r[29] <= 0
 mccormick2[30]: - x[30] + r[30] <= 0
 mccormick2[31]: - x[31] + r[31] <= 0
 mccormick2[32]: - x[32] + r[32] <= 0
 mccormick2[33]: - x[33] + r[33] <= 0
 mccormick2[34]: - x[34] + r[34] <= 0
 mccormick2[35]: - x[35] + r[35] <= 0
 mccormick2[36]: - x[36] + r[36] <= 0
 mccormick2[37]: - x[37] + r[37] <= 0
 mccormick2[38]: - x[38] + r[38] <= 0
 mccormick2[39]: - x[39] + r[39] <= 0
 mccormick2[40]: - x[40] + r[40] <= 0
 mccormick2[41]: - x[41] + r[41] <= 0
 mccormick2[42]: - x[42] + r[42] <= 0
 mccormick2[43]: - x[43] + r[43] <= 0
 mccormick2[44]: - x[44] + r[44] <= 0
 mccormick2[45]: - x[45] + r[45] <= 0
 mccormick2[46]: - x[46] + r[46] <= 0
 mccormick2[47]: - x[47] + r[47] <= 0
 mccormick2[48]: - x[48] + r[48] <= 0
 mccormick2[49]: - x[49] + r[49] <= 0
 mccormick2[50]: - x[50] + r[50] <= 0
 mccormick2[51]: - x[51] + r[51] <= 0
 mccormick2[52]: - x[52] + r[52] <= 0
 mccormick2[53]: - x[53] + r[53] <= 0
 mccormick2[54]: - x[54] + r[54] <= 0
 mccormick2[55]: - x[55] + r[55] <= 0
 mccormick2[56]: - x[56] + r[56] <= 0
 mccormick2[57]: - x[57] + r[57] <= 0
 mccormick2[58]: - x[58] + r[58] <= 0
 mccormick2[59]: - x[59] + r[59] <= 0
 mccormick2[60]: - x[60] + r[60] <= 0
 mccormick2[61]: - x[61] + r[61] <= 0
 mccormick2[62]: - x[62] + r[62] <= 0
 mccormick2[63]: - x[63] + r[63] <= 0
 mccormick2[64]: - x[64] + r[64] <= 0
 mccormick2[65]: - x[65] + r[65] <= 0
 mccormick2[66]: - x[66] + r[66] <= 0
 mccormick2[67]: - x[67] + r[67] <= 0
 mccormick2[68]: - x[68] + r[68] <= 0
 mccormick2[69]: - x[69] + r[69] <= 0
 mccormick2[70]: - x[70] + r[70] <= 0
 mccormick2[71]: - x[71] + r[71] <= 0
 mccormick2[72]: - x[72] + r[72] <= 0
 mccormick2[73]: - x[73] + r[73] <= 0
 mccormick2[74]: - x[74] + r[74] <= 0
 mccormick2[75]: - x[75] + r[75] <= 0
 mccormick2[76]: - x[76] + r[76] <= 0
 mccormick2[77]: - x[77] + r[77] <= 0
 mccormick2[78]: - x[78] + r[78] <= 0
 mccormick2[79]: - x[79] + r[79] <= 0
 mccormick3[0]: x[0] + u[0] - r[0] <= 1
 mccormick3[1]: x[1] + u[1] - r[1] <= 1
 mccormick3[2]: x[2] + u[2] - r[2] <= 1
 mccormick3[3]: x[3] + u[3] - r[3] <= 1
 mccormick3[4]: x[4] + u[4] - r[4] <= 1
 mccormick3[5]: x[5] + u[5] - r[5] <= 1
 mccormick3[6]: x[6] + u[6] - r[6] <= 1
 mccormick3[7]: x[7] + u[7] - r[7] <= 1
 mccormick3[8]: x[8] + u[8] - r[8] <= 1
 mccormick3[9]: x[9] + u[9] - r[9] <= 1
 mccormick3[10]: x[10] + u[10] - r[10] <= 1
 mccormick3[11]: x[11] + u[11] - r[11] <= 1
 mccormick3[12]: x[12] + u[12] - r[12] <= 1
 mccormick3[13]: x[13] + u[13] - r[13] <= 1
 mccormick3[14]: x[14] + u[14] - r[14] <= 1
 mccormick3[15]: x[15] + u[15] - r[15] <= 1
 mccormick3[16]: x[16] + u[16] - r[16] <= 1
 mccormick3[17]: x[17] + u[17] - r[17] <= 1
 mccormick3[18]: x[18] + u[18] - r[18] <= 1
 mccormick3[19]: x[19] + u[19] - r[19] <= 1
 mccormick3[20]: x[20] + u[20] - r[20] <= 1
 mccormick3[21]: x[21] + u[21] - r[21] <= 1
 mccormick3[22]: x[22] + u[22] - r[22] <= 1
 mccormick3[23]: x[23] + u[23] - r[23] <= 1
 mccormick3[24]: x[24] + u[24] - r[24] <= 1
 mccormick3[25]: x[25] + u[25] - r[25] <= 1
 mccormick3[26]: x[26] + u[26] - r[26] <= 1
 mccormick3[27]: x[27] + u[27] - r[27] <= 1
 mccormick3[28]: x[28] + u[28] - r[28] <= 1
 mccormick3[29]: x[29] + u[29] - r[29] <= 1
 mccormick3[30]: x[30] + u[30] - r[30] <= 1
 mccormick3[31]: x[31] + u[31] - r[31] <= 1
 mccormick3[32]: x[32] + u[32] - r[32] <= 1
 mccormick3[33]: x[33] + u[33] - r[33] <= 1
 mccormick3[34]: x[34] + u[34] - r[34] <= 1
 mccormick3[35]: x[35] + u[35] - r[35] <= 1
 mccormick3[36]: x[36] + u[36] - r[36] <= 1
 mccormick3[37]: x[37] + u[37] - r[37] <= 1
 mccormick3[38]: x[38] + u[38] - r[38] <= 1
 mccormick3[39]: x[39] + u[39] - r[39] <= 1
 mccormick3[40]: x[40] + u[40] - r[40] <= 1
 mccormick3[41]: x[41] + u[41] - r[41] <= 1
 mccormick3[42]: x[42] + u[42] - r[42] <= 1
 mccormick3[43]: x[43] + u[43] - r[43] <= 1
 mccormick3[44]: x[44] + u[44] - r[44] <= 1
 mccormick3[45]: x[45] + u[45] - r[45] <= 1
 mccormick3[46]: x[46] + u[46] - r[46] <= 1
 mccormick3[47]: x[47] + u[47] - r[47] <= 1
 mccormick3[48]: x[48] + u[48] - r[48] <= 1
 mccormick3[49]: x[49] + u[49] - r[49] <= 1
 mccormick3[50]: x[50] + u[50] - r[50] <= 1
 mccormick3[51]: x[51] + u[51] - r[51] <= 1
 mccormick3[52]: x[52] + u[52] - r[52] <= 1
 mccormick3[53]: x[53] + u[53] - r[53] <= 1
 mccormick3[54]: x[54] + u[54] - r[54] <= 1
 mccormick3[55]: x[55] + u[55] - r[55] <= 1
 mccormick3[56]: x[56] + u[56] - r[56] <= 1
 mccormick3[57]: x[57] + u[57] - r[57] <= 1
 mccormick3[58]: x[58] + u[58] - r[58] <= 1
 mccormick3[59]: x[59] + u[59] - r[59] <= 1
 mccormick3[60]: x[60] + u[60] - r[60] <= 1
 mccormick3[61]: x[61] + u[61] - r[61] <= 1
 mccormick3[62]: x[62] + u[62] - r[62] <= 1
 mccormick3[63]: x[63] + u[63] - r[63] <= 1
 mccormick3[64]: x[64] + u[64] - r[64] <= 1
 mccormick3[65]: x[65] + u[65] - r[65] <= 1
 mccormick3[66]: x[66] + u[66] - r[66] <= 1
 mccormick3[67]: x[67] + u[67] - r[67] <= 1
 mccormick3[68]: x[68] + u[68] - r[68] <= 1
 mccormick3[69]: x[69] + u[69] - r[69] <= 1
 mccormick3[70]: x[70] + u[70] - r[70] <= 1
 mccormick3[71]: x[71] + u[71] - r[71] <= 1
 mccormick3[72]: x[72] + u[72] - r[72] <= 1
 mccormick3[73]: x[73] + u[73] - r[73] <= 1
 mccormick3[74]: x[74] + u[74] - r[74] <= 1
 mccormick3[75]: x[75] + u[75] - r[75] <= 1
 mccormick3[76]: x[76] + u[76] - r[76] <= 1
 mccormick3[77]: x[77] + u[77] - r[77] <= 1
 mccormick3[78]: x[78] + u[78] - r[78] <= 1
 mccormick3[79]: x[79] + u[79] - r[79] <= 1
Bounds
Binaries
 x[0] x[1] x[2] x[3] x[4] x[5] x[6] x[7] x[8] x[9] x[10] x[11] x[12] x[13]
 x[14] x[15] x[16] x[17] x[18] x[19] x[20] x[21] x[22] x[23] x[24] x[25]
 x[26] x[27] x[28] x[29] x[30] x[31] x[32] x[33] x[34] x[35] x[36] x[37]
 x[38] x[39] x[40] x[41] x[42] x[43] x[44] x[45] x[46] x[47] x[48] x[49]
 x[50] x[51] x[52] x[53] x[54] x[55] x[56] x[57] x[58] x[59] x[60] x[61]
 x[62] x[63] x[64] x[65] x[66] x[67] x[68] x[69] x[70] x[71] x[72] x[73]
 x[74] x[75] x[76] x[77] x[78] x[79] u[0] u[1] u[2] u[3] u[4] u[5] u[6]
 u[7] u[8] u[9] u[10] u[11] u[12] u[13] u[14] u[15] u[16] u[17] u[18] u[19]
 u[20] u[21] u[22] u[23] u[24] u[25] u[26] u[27] u[28] u[29] u[30] u[31]
 u[32] u[33] u[34] u[35] u[36] u[37] u[38] u[39] u[40] u[41] u[42] u[43]
 u[44] u[45] u[46] u[47] u[48] u[49] u[50] u[51] u[52] u[53] u[54] u[55]
 u[56] u[57] u[58] u[59] u[60] u[61] u[62] u[63] u[64] u[65] u[66] u[67]
 u[68] u[69] u[70] u[71] u[72] u[73] u[74] u[75] u[76] u[77] u[78] u[79]
 r[0] r[1] r[2] r[3] r[4] r[5] r[6] r[7] r[8] r[9] r[10] r[11] r[12] r[13]
 r[14] r[15] r[16] r[17] r[18] r[19] r[20] r[21] r[22] r[23] r[24] r[25]
 r[26] r[27] r[28] r[29] r[30] r[31] r[32] r[33] r[34] r[35] r[36] r[37]
 r[38] r[39] r[40] r[41] r[42] r[43] r[44] r[45] r[46] r[47] r[48] r[49]
 r[50] r[51] r[52] r[53] r[54] r[55] r[56] r[57] r[58] r[59] r[60] r[61]
 r[62] r[63] r[64] r[65] r[66] r[67] r[68] r[69] r[70] r[71] r[72] r[73]
 r[74] r[75] r[76] r[77] r[78] r[79]
End
